c Sudoku solution
p cnf 729 0
197 0
216 0
293 0
327 0
341 0
356 0
432 0
461 0
518 0
537 0
553 0
579 0
582 0
624 0
666 0
688 0
736 0
784 0
815 0
823 0
848 0
946 0
458 0
854 0
899 0
831 0
938 0
914 0
717 0
969 0
729 0
922 0
973 0
483 0
419 0
691 0
521 0
613 0
635 0
426 0
596 0
677 0
447 0
111 0
312 0
995 0
792 0
876 0
887 0
981 0
778 0
751 0
957 0
862 0
267 0
271 0
172 0
186 0
228 0
125 0
159 0
168 0
649 0
652 0
242 0
255 0
234 0
133 0
339 0
144 0
363 0
289 0
385 0
743 0
765 0
545 0
564 0
475 0
494 0
374 0
398 0
